Instance name : R205
Authors : bauke
Date :    21-05-13
Reference : N/A
Solution
Route 1 : 27 69 31 62 63 11 19 36 47 82 7 88 52 18 84 61 16 44 38 86 85 99 6 94 97 87 43 57 74 56 4 26 54 55 25 24 80 68 77 1
Route 2 : 28 12 29 33 65 71 51 30 90 64 49 46 8 17 91 100 37 93 96 13 58
Route 3 : 45 83 5 59 95 92 98 14 42 15 2 72 39 67 23 75 22 41 73 21 40 53 76 50 3 79 81 9 78 34 35 66 20 32 10 70 48 60 89

